set PUB := television,magazine;
param budget := 1000000;
param amount_of_people := 100;
param: cout auditeurs temps min_pub pub_personne :=
television 20000 1800000 1 10 1
magazine 10000 1000000 1 2 3;

